c A SAT instance generated from a 3-CNF formula that had 28 clauses and 7 variables
p cnf 7 28
5 -3 7 0
1 5 -7 0
-7 -1 -6 0
1 -3 -6 0
-2 4 -6 0
3 -4 -6 0
-3 -7 4 0
5 -4 3 0
2 4 6 0
1 7 2 0
-5 1 -2 0
-3 7 -6 0
-5 -6 1 0
-1 -4 -3 0
4 -1 5 0
5 -4 -2 0
-4 -3 -7 0
1 -7 -3 0
-6 -1 3 0
-1 -4 7 0
5 2 6 0
4 7 6 0
5 4 3 0
-1 6 7 0
-7 3 4 0
7 -3 2 0
7 6 2 0
1 5 4 0
